
******************************************************************************
This program contains Ipopt, a library for large-scale nonlinear optimization.
 Ipopt is released as open source code under the Eclipse Public License (EPL).
         For more information visit http://projects.coin-or.org/Ipopt
******************************************************************************

This is Ipopt version 3.12.6, running with linear solver ma57.

Number of nonzeros in equality constraint Jacobian...:       66
Number of nonzeros in inequality constraint Jacobian.:        0
Number of nonzeros in Lagrangian Hessian.............:        8

Reallocating memory for MA57: lfact (1250)
Total number of variables............................:       28
                     variables with only lower bounds:        0
                variables with lower and upper bounds:        7
                     variables with only upper bounds:        0
Total number of equality constraints.................:       21
Total number of inequality constraints...............:        0
        inequality constraints with only lower bounds:        0
   inequality constraints with lower and upper bounds:        0
        inequality constraints with only upper bounds:        0

iter    objective    inf_pr   inf_du lg(mu)  ||d||  lg(rg) alpha_du alpha_pr  ls
   0  0.0000000e+00 3.55e+05 0.00e+00  -1.0 0.00e+00    -  0.00e+00 0.00e+00   0
Reallocating memory for MA57: lfact (1685)
   1 -6.9720452e+10 2.97e+05 5.79e+10  -1.0 1.61e+06   0.0 2.67e-01 1.64e-01h  1
   2 -8.5165353e+10 2.87e+05 5.60e+10  -1.0 8.09e+05  -0.5 9.70e-01 3.43e-02f  1
   3 -8.5697959e+10 2.87e+05 5.59e+10  -1.0 7.80e+05  -1.0 1.00e+00 1.17e-03f  1
   4 -8.5730395e+10 2.87e+05 5.70e+10  -1.0 7.80e+05  -1.4 1.00e+00 7.11e-05f  1
   5 -1.1497928e+12 3.82e+03 1.23e+11  -1.0 7.79e+05  -1.9 1.00e+00 1.00e+00f  1
   6 -1.3688867e+12 1.96e+04 5.81e+09  -1.0 1.67e+09    -  9.90e-01 1.00e+00f  1
   7 -1.2604127e+12 4.89e+01 2.25e+08  -1.0 2.17e+08    -  9.91e-01 1.00e+00h  1
   8 -1.2600109e+12 5.57e-01 2.25e+06  -1.0 4.25e+06    -  1.00e+00 9.90e-01h  1
   9 -1.2600063e+12 5.07e-03 2.04e+04  -1.7 4.25e+04    -  1.00e+00 9.91e-01h  1
iter    objective    inf_pr   inf_du lg(mu)  ||d||  lg(rg) alpha_du alpha_pr  ls
  10 -1.2600063e+12 1.40e-07 5.12e-03  -3.8 3.71e+02    -  1.00e+00 1.00e+00h  1
  11 -1.2600063e+12 2.07e-07 3.01e-09  -5.7 3.94e+01    -  1.00e+00 1.00e+00h  1
  12 -1.2600063e+12 6.94e-08 3.71e-10  -5.7 1.62e+01    -  1.00e+00 1.00e+00h  1
  13 -1.2600062e+12 1.63e-07 5.10e-11  -5.7 4.25e+00    -  1.00e+00 1.00e+00h  1
  14 -1.2600062e+12 7.69e-08 1.80e+04  -5.7 3.72e-01    -  1.00e+00 3.12e-02h  6
  15 -1.2600062e+12 3.66e-08 2.12e+04  -5.7 3.67e-01    -  1.00e+00 1.25e-01f  4
  16 -1.2600063e+12 1.09e-07 4.66e-10  -5.7 3.22e-01    -  1.00e+00 1.00e+00f  1
  17 -1.2600063e+12 1.38e-07 1.92e+03  -5.7 1.71e-03    -  1.00e+00 5.00e-01h  2
  18 -1.2600063e+12 1.09e-07 1.48e+03  -5.7 1.32e-03    -  1.00e+00 5.00e-01h  2
  19 -1.2600063e+12 1.62e-07 8.76e+02  -5.7 7.80e-04    -  1.00e+00 5.00e-01h  2
iter    objective    inf_pr   inf_du lg(mu)  ||d||  lg(rg) alpha_du alpha_pr  ls
  20 -1.2600063e+12 9.97e-08 4.60e+02  -5.7 4.10e-04    -  1.00e+00 5.00e-01h  2
  21 -1.2600063e+12 9.07e-08 2.32e+02  -5.7 2.07e-04    -  1.00e+00 5.00e-01h  2
  22 -1.2600063e+12 2.80e-07 1.16e+02  -5.7 1.04e-04    -  1.00e+00 5.00e-01h  2
  23 -1.2600063e+12 3.74e-07 5.81e+01  -5.7 5.18e-05    -  1.00e+00 5.00e-01h  2
  24 -1.2600062e+12 9.94e-08 3.50e-14  -8.6 3.42e+00    -  1.00e+00 1.00e+00h  1
  25 -1.2600062e+12 1.26e-07 3.13e-15  -8.6 4.40e-01    -  1.00e+00 1.00e+00h  1
  26 -1.2600062e+12 1.98e-07 3.91e-16  -9.0 2.63e-02    -  1.00e+00 1.00e+00h  1

Number of Iterations....: 26

                                   (scaled)                 (unscaled)
Objective...............:  -1.2600062500000000e+12   -1.2600062500000000e+12
Dual infeasibility......:   3.9131312180163433e-16    3.9131312180163433e-16
Constraint violation....:   5.5687116763832704e-11    1.9792367250526515e-07
Complementarity.........:   1.0435183647633477e-09    1.0435183647633477e-09
Overall NLP error.......:   1.0435183647633477e-09    1.9792367250526515e-07


Number of objective function evaluations             = 61
Number of objective gradient evaluations             = 27
Number of equality constraint evaluations            = 61
Number of inequality constraint evaluations          = 0
Number of equality constraint Jacobian evaluations   = 27
Number of inequality constraint Jacobian evaluations = 0
Number of Lagrangian Hessian evaluations             = 26
Total CPU secs in IPOPT (w/o function evaluations)   =      0.003
Total CPU secs in NLP function evaluations           =      0.000

EXIT: Optimal Solution Found.

************************ CUTEst statistics ************************


 Package used            :  IPOPT
 Problem                 :  HS99EXP   
 # variables             =              31
 # constraints           =              21
 # objective functions   =        0.8900000E+02
 # objective gradients   =        0.2800000E+02
 # objective Hessians    =        0.2700000E+02
 # Hessian-vector prdct  =        0.0000000E+00
 # constraints functions =        0.9000000E+02
 # constraints gradients =        0.2900000E+02
 # constraints Hessians  =        0.2700000E+02
 Exit code               =               0
 Final f                 =  -0.1260006E+13
 Set up time             =            0.00 seconds
 Solve time              =            0.04 seconds


******************************************************************

System Time =       0.0109999999 s.
